; SPDX-License-Identifier: Apache-2.0
; Copyright 2026 Andrew Yates
;
; A2 NON-VACUITY / TOTALITY control — decode_byte's Err path is genuinely reachable
;   and Ok values are real (decode is a TOTAL function: Ok or Err, never a panic).
;   Discharged by `ay`.
; Expected: sat  (a witness exists: some byte maps to the 0xFF sentinel => Err, and
;                 some byte maps to a valid 0..63 index => Ok — both branches live).
;
; FAITHFUL SOURCE (crates/aterm-codec/src/base64.rs:18-29, 219-225):
;   build_decode_table: table = [0xFF; 256]; then table[alphabet[i]] = i for i in 0..64.
;   decode_byte: let val = table[byte as usize];
;                if val == 0xFF { Err(InvalidByte) } else { Ok(val) }
;   So a byte that is NOT in the standard alphabet (e.g. '!'=33, ' '=32, '='=61)
;   maps to 0xFF and yields Err; an alphabet byte (e.g. 'A'=65 -> 0, '/'=47 -> 63)
;   yields Ok. This control proves BOTH branches are reachable (the unsat lemmas
;   would be vacuous if decode_byte could never reach a real value or an Err).
;
; This models the CONCRETE 256-entry STANDARD_DECODE table as a pure-BV ite-chain
; (byte -> table value), then asks ay for a witness satisfying both:
;   * exists an invalid byte: table[byte] == 0xFF   (Err path reachable)
;   * the same model pins a valid byte producing an in-range index (Ok path real).
(set-logic QF_BV)

(declare-const byte (_ BitVec 8))      ; the invalid (Err) witness byte

; STANDARD_DECODE[byte] as a pure-BV ite-chain. Default tail (byte 255) is 0xFF.
(define-fun DECODE ((x (_ BitVec 8))) (_ BitVec 8)
  (ite (= x (_ bv0 8)) (_ bv255 8)
  (ite (= x (_ bv1 8)) (_ bv255 8)
  (ite (= x (_ bv2 8)) (_ bv255 8)
  (ite (= x (_ bv3 8)) (_ bv255 8)
  (ite (= x (_ bv4 8)) (_ bv255 8)
  (ite (= x (_ bv5 8)) (_ bv255 8)
  (ite (= x (_ bv6 8)) (_ bv255 8)
  (ite (= x (_ bv7 8)) (_ bv255 8)
  (ite (= x (_ bv8 8)) (_ bv255 8)
  (ite (= x (_ bv9 8)) (_ bv255 8)
  (ite (= x (_ bv10 8)) (_ bv255 8)
  (ite (= x (_ bv11 8)) (_ bv255 8)
  (ite (= x (_ bv12 8)) (_ bv255 8)
  (ite (= x (_ bv13 8)) (_ bv255 8)
  (ite (= x (_ bv14 8)) (_ bv255 8)
  (ite (= x (_ bv15 8)) (_ bv255 8)
  (ite (= x (_ bv16 8)) (_ bv255 8)
  (ite (= x (_ bv17 8)) (_ bv255 8)
  (ite (= x (_ bv18 8)) (_ bv255 8)
  (ite (= x (_ bv19 8)) (_ bv255 8)
  (ite (= x (_ bv20 8)) (_ bv255 8)
  (ite (= x (_ bv21 8)) (_ bv255 8)
  (ite (= x (_ bv22 8)) (_ bv255 8)
  (ite (= x (_ bv23 8)) (_ bv255 8)
  (ite (= x (_ bv24 8)) (_ bv255 8)
  (ite (= x (_ bv25 8)) (_ bv255 8)
  (ite (= x (_ bv26 8)) (_ bv255 8)
  (ite (= x (_ bv27 8)) (_ bv255 8)
  (ite (= x (_ bv28 8)) (_ bv255 8)
  (ite (= x (_ bv29 8)) (_ bv255 8)
  (ite (= x (_ bv30 8)) (_ bv255 8)
  (ite (= x (_ bv31 8)) (_ bv255 8)
  (ite (= x (_ bv32 8)) (_ bv255 8)
  (ite (= x (_ bv33 8)) (_ bv255 8)
  (ite (= x (_ bv34 8)) (_ bv255 8)
  (ite (= x (_ bv35 8)) (_ bv255 8)
  (ite (= x (_ bv36 8)) (_ bv255 8)
  (ite (= x (_ bv37 8)) (_ bv255 8)
  (ite (= x (_ bv38 8)) (_ bv255 8)
  (ite (= x (_ bv39 8)) (_ bv255 8)
  (ite (= x (_ bv40 8)) (_ bv255 8)
  (ite (= x (_ bv41 8)) (_ bv255 8)
  (ite (= x (_ bv42 8)) (_ bv255 8)
  (ite (= x (_ bv43 8)) (_ bv62 8)
  (ite (= x (_ bv44 8)) (_ bv255 8)
  (ite (= x (_ bv45 8)) (_ bv255 8)
  (ite (= x (_ bv46 8)) (_ bv255 8)
  (ite (= x (_ bv47 8)) (_ bv63 8)
  (ite (= x (_ bv48 8)) (_ bv52 8)
  (ite (= x (_ bv49 8)) (_ bv53 8)
  (ite (= x (_ bv50 8)) (_ bv54 8)
  (ite (= x (_ bv51 8)) (_ bv55 8)
  (ite (= x (_ bv52 8)) (_ bv56 8)
  (ite (= x (_ bv53 8)) (_ bv57 8)
  (ite (= x (_ bv54 8)) (_ bv58 8)
  (ite (= x (_ bv55 8)) (_ bv59 8)
  (ite (= x (_ bv56 8)) (_ bv60 8)
  (ite (= x (_ bv57 8)) (_ bv61 8)
  (ite (= x (_ bv58 8)) (_ bv255 8)
  (ite (= x (_ bv59 8)) (_ bv255 8)
  (ite (= x (_ bv60 8)) (_ bv255 8)
  (ite (= x (_ bv61 8)) (_ bv255 8)
  (ite (= x (_ bv62 8)) (_ bv255 8)
  (ite (= x (_ bv63 8)) (_ bv255 8)
  (ite (= x (_ bv64 8)) (_ bv255 8)
  (ite (= x (_ bv65 8)) (_ bv0 8)
  (ite (= x (_ bv66 8)) (_ bv1 8)
  (ite (= x (_ bv67 8)) (_ bv2 8)
  (ite (= x (_ bv68 8)) (_ bv3 8)
  (ite (= x (_ bv69 8)) (_ bv4 8)
  (ite (= x (_ bv70 8)) (_ bv5 8)
  (ite (= x (_ bv71 8)) (_ bv6 8)
  (ite (= x (_ bv72 8)) (_ bv7 8)
  (ite (= x (_ bv73 8)) (_ bv8 8)
  (ite (= x (_ bv74 8)) (_ bv9 8)
  (ite (= x (_ bv75 8)) (_ bv10 8)
  (ite (= x (_ bv76 8)) (_ bv11 8)
  (ite (= x (_ bv77 8)) (_ bv12 8)
  (ite (= x (_ bv78 8)) (_ bv13 8)
  (ite (= x (_ bv79 8)) (_ bv14 8)
  (ite (= x (_ bv80 8)) (_ bv15 8)
  (ite (= x (_ bv81 8)) (_ bv16 8)
  (ite (= x (_ bv82 8)) (_ bv17 8)
  (ite (= x (_ bv83 8)) (_ bv18 8)
  (ite (= x (_ bv84 8)) (_ bv19 8)
  (ite (= x (_ bv85 8)) (_ bv20 8)
  (ite (= x (_ bv86 8)) (_ bv21 8)
  (ite (= x (_ bv87 8)) (_ bv22 8)
  (ite (= x (_ bv88 8)) (_ bv23 8)
  (ite (= x (_ bv89 8)) (_ bv24 8)
  (ite (= x (_ bv90 8)) (_ bv25 8)
  (ite (= x (_ bv91 8)) (_ bv255 8)
  (ite (= x (_ bv92 8)) (_ bv255 8)
  (ite (= x (_ bv93 8)) (_ bv255 8)
  (ite (= x (_ bv94 8)) (_ bv255 8)
  (ite (= x (_ bv95 8)) (_ bv255 8)
  (ite (= x (_ bv96 8)) (_ bv255 8)
  (ite (= x (_ bv97 8)) (_ bv26 8)
  (ite (= x (_ bv98 8)) (_ bv27 8)
  (ite (= x (_ bv99 8)) (_ bv28 8)
  (ite (= x (_ bv100 8)) (_ bv29 8)
  (ite (= x (_ bv101 8)) (_ bv30 8)
  (ite (= x (_ bv102 8)) (_ bv31 8)
  (ite (= x (_ bv103 8)) (_ bv32 8)
  (ite (= x (_ bv104 8)) (_ bv33 8)
  (ite (= x (_ bv105 8)) (_ bv34 8)
  (ite (= x (_ bv106 8)) (_ bv35 8)
  (ite (= x (_ bv107 8)) (_ bv36 8)
  (ite (= x (_ bv108 8)) (_ bv37 8)
  (ite (= x (_ bv109 8)) (_ bv38 8)
  (ite (= x (_ bv110 8)) (_ bv39 8)
  (ite (= x (_ bv111 8)) (_ bv40 8)
  (ite (= x (_ bv112 8)) (_ bv41 8)
  (ite (= x (_ bv113 8)) (_ bv42 8)
  (ite (= x (_ bv114 8)) (_ bv43 8)
  (ite (= x (_ bv115 8)) (_ bv44 8)
  (ite (= x (_ bv116 8)) (_ bv45 8)
  (ite (= x (_ bv117 8)) (_ bv46 8)
  (ite (= x (_ bv118 8)) (_ bv47 8)
  (ite (= x (_ bv119 8)) (_ bv48 8)
  (ite (= x (_ bv120 8)) (_ bv49 8)
  (ite (= x (_ bv121 8)) (_ bv50 8)
  (ite (= x (_ bv122 8)) (_ bv51 8)
  (ite (= x (_ bv123 8)) (_ bv255 8)
  (ite (= x (_ bv124 8)) (_ bv255 8)
  (ite (= x (_ bv125 8)) (_ bv255 8)
  (ite (= x (_ bv126 8)) (_ bv255 8)
  (ite (= x (_ bv127 8)) (_ bv255 8)
  (ite (= x (_ bv128 8)) (_ bv255 8)
  (ite (= x (_ bv129 8)) (_ bv255 8)
  (ite (= x (_ bv130 8)) (_ bv255 8)
  (ite (= x (_ bv131 8)) (_ bv255 8)
  (ite (= x (_ bv132 8)) (_ bv255 8)
  (ite (= x (_ bv133 8)) (_ bv255 8)
  (ite (= x (_ bv134 8)) (_ bv255 8)
  (ite (= x (_ bv135 8)) (_ bv255 8)
  (ite (= x (_ bv136 8)) (_ bv255 8)
  (ite (= x (_ bv137 8)) (_ bv255 8)
  (ite (= x (_ bv138 8)) (_ bv255 8)
  (ite (= x (_ bv139 8)) (_ bv255 8)
  (ite (= x (_ bv140 8)) (_ bv255 8)
  (ite (= x (_ bv141 8)) (_ bv255 8)
  (ite (= x (_ bv142 8)) (_ bv255 8)
  (ite (= x (_ bv143 8)) (_ bv255 8)
  (ite (= x (_ bv144 8)) (_ bv255 8)
  (ite (= x (_ bv145 8)) (_ bv255 8)
  (ite (= x (_ bv146 8)) (_ bv255 8)
  (ite (= x (_ bv147 8)) (_ bv255 8)
  (ite (= x (_ bv148 8)) (_ bv255 8)
  (ite (= x (_ bv149 8)) (_ bv255 8)
  (ite (= x (_ bv150 8)) (_ bv255 8)
  (ite (= x (_ bv151 8)) (_ bv255 8)
  (ite (= x (_ bv152 8)) (_ bv255 8)
  (ite (= x (_ bv153 8)) (_ bv255 8)
  (ite (= x (_ bv154 8)) (_ bv255 8)
  (ite (= x (_ bv155 8)) (_ bv255 8)
  (ite (= x (_ bv156 8)) (_ bv255 8)
  (ite (= x (_ bv157 8)) (_ bv255 8)
  (ite (= x (_ bv158 8)) (_ bv255 8)
  (ite (= x (_ bv159 8)) (_ bv255 8)
  (ite (= x (_ bv160 8)) (_ bv255 8)
  (ite (= x (_ bv161 8)) (_ bv255 8)
  (ite (= x (_ bv162 8)) (_ bv255 8)
  (ite (= x (_ bv163 8)) (_ bv255 8)
  (ite (= x (_ bv164 8)) (_ bv255 8)
  (ite (= x (_ bv165 8)) (_ bv255 8)
  (ite (= x (_ bv166 8)) (_ bv255 8)
  (ite (= x (_ bv167 8)) (_ bv255 8)
  (ite (= x (_ bv168 8)) (_ bv255 8)
  (ite (= x (_ bv169 8)) (_ bv255 8)
  (ite (= x (_ bv170 8)) (_ bv255 8)
  (ite (= x (_ bv171 8)) (_ bv255 8)
  (ite (= x (_ bv172 8)) (_ bv255 8)
  (ite (= x (_ bv173 8)) (_ bv255 8)
  (ite (= x (_ bv174 8)) (_ bv255 8)
  (ite (= x (_ bv175 8)) (_ bv255 8)
  (ite (= x (_ bv176 8)) (_ bv255 8)
  (ite (= x (_ bv177 8)) (_ bv255 8)
  (ite (= x (_ bv178 8)) (_ bv255 8)
  (ite (= x (_ bv179 8)) (_ bv255 8)
  (ite (= x (_ bv180 8)) (_ bv255 8)
  (ite (= x (_ bv181 8)) (_ bv255 8)
  (ite (= x (_ bv182 8)) (_ bv255 8)
  (ite (= x (_ bv183 8)) (_ bv255 8)
  (ite (= x (_ bv184 8)) (_ bv255 8)
  (ite (= x (_ bv185 8)) (_ bv255 8)
  (ite (= x (_ bv186 8)) (_ bv255 8)
  (ite (= x (_ bv187 8)) (_ bv255 8)
  (ite (= x (_ bv188 8)) (_ bv255 8)
  (ite (= x (_ bv189 8)) (_ bv255 8)
  (ite (= x (_ bv190 8)) (_ bv255 8)
  (ite (= x (_ bv191 8)) (_ bv255 8)
  (ite (= x (_ bv192 8)) (_ bv255 8)
  (ite (= x (_ bv193 8)) (_ bv255 8)
  (ite (= x (_ bv194 8)) (_ bv255 8)
  (ite (= x (_ bv195 8)) (_ bv255 8)
  (ite (= x (_ bv196 8)) (_ bv255 8)
  (ite (= x (_ bv197 8)) (_ bv255 8)
  (ite (= x (_ bv198 8)) (_ bv255 8)
  (ite (= x (_ bv199 8)) (_ bv255 8)
  (ite (= x (_ bv200 8)) (_ bv255 8)
  (ite (= x (_ bv201 8)) (_ bv255 8)
  (ite (= x (_ bv202 8)) (_ bv255 8)
  (ite (= x (_ bv203 8)) (_ bv255 8)
  (ite (= x (_ bv204 8)) (_ bv255 8)
  (ite (= x (_ bv205 8)) (_ bv255 8)
  (ite (= x (_ bv206 8)) (_ bv255 8)
  (ite (= x (_ bv207 8)) (_ bv255 8)
  (ite (= x (_ bv208 8)) (_ bv255 8)
  (ite (= x (_ bv209 8)) (_ bv255 8)
  (ite (= x (_ bv210 8)) (_ bv255 8)
  (ite (= x (_ bv211 8)) (_ bv255 8)
  (ite (= x (_ bv212 8)) (_ bv255 8)
  (ite (= x (_ bv213 8)) (_ bv255 8)
  (ite (= x (_ bv214 8)) (_ bv255 8)
  (ite (= x (_ bv215 8)) (_ bv255 8)
  (ite (= x (_ bv216 8)) (_ bv255 8)
  (ite (= x (_ bv217 8)) (_ bv255 8)
  (ite (= x (_ bv218 8)) (_ bv255 8)
  (ite (= x (_ bv219 8)) (_ bv255 8)
  (ite (= x (_ bv220 8)) (_ bv255 8)
  (ite (= x (_ bv221 8)) (_ bv255 8)
  (ite (= x (_ bv222 8)) (_ bv255 8)
  (ite (= x (_ bv223 8)) (_ bv255 8)
  (ite (= x (_ bv224 8)) (_ bv255 8)
  (ite (= x (_ bv225 8)) (_ bv255 8)
  (ite (= x (_ bv226 8)) (_ bv255 8)
  (ite (= x (_ bv227 8)) (_ bv255 8)
  (ite (= x (_ bv228 8)) (_ bv255 8)
  (ite (= x (_ bv229 8)) (_ bv255 8)
  (ite (= x (_ bv230 8)) (_ bv255 8)
  (ite (= x (_ bv231 8)) (_ bv255 8)
  (ite (= x (_ bv232 8)) (_ bv255 8)
  (ite (= x (_ bv233 8)) (_ bv255 8)
  (ite (= x (_ bv234 8)) (_ bv255 8)
  (ite (= x (_ bv235 8)) (_ bv255 8)
  (ite (= x (_ bv236 8)) (_ bv255 8)
  (ite (= x (_ bv237 8)) (_ bv255 8)
  (ite (= x (_ bv238 8)) (_ bv255 8)
  (ite (= x (_ bv239 8)) (_ bv255 8)
  (ite (= x (_ bv240 8)) (_ bv255 8)
  (ite (= x (_ bv241 8)) (_ bv255 8)
  (ite (= x (_ bv242 8)) (_ bv255 8)
  (ite (= x (_ bv243 8)) (_ bv255 8)
  (ite (= x (_ bv244 8)) (_ bv255 8)
  (ite (= x (_ bv245 8)) (_ bv255 8)
  (ite (= x (_ bv246 8)) (_ bv255 8)
  (ite (= x (_ bv247 8)) (_ bv255 8)
  (ite (= x (_ bv248 8)) (_ bv255 8)
  (ite (= x (_ bv249 8)) (_ bv255 8)
  (ite (= x (_ bv250 8)) (_ bv255 8)
  (ite (= x (_ bv251 8)) (_ bv255 8)
  (ite (= x (_ bv252 8)) (_ bv255 8)
  (ite (= x (_ bv253 8)) (_ bv255 8)
  (ite (= x (_ bv254 8)) (_ bv255 8)
  (_ bv255 8)
  ))))))))))))))))))))))))))))))))))))))))))))))))))))))))))))))))))))))))))))))))))))))))))))))))))))))))))))))))))))))))))))))))))))))))))))))))))))))))))))))))))))))))))))))))))))))))))))))))))))))))))))))))))))))))))))))))))))))))))))))))))))))))))))))))

; Err path: this witness byte is NOT in the alphabet => decode_byte returns Err.
(assert (= (DECODE byte) (_ bv255 8)))            ; table[byte] == 0xFF (sentinel)
(assert (bvult byte (_ bv128 8)))                 ; an ASCII non-alphabet byte (e.g. '!','=',space)

; Ok path is real too: a fixed alphabet byte decodes to an in-range 0..63 index.
(assert (= (DECODE (_ bv65 8)) (_ bv0  8)))       ; 'A' -> 0   (Ok)
(assert (= (DECODE (_ bv47 8)) (_ bv63 8)))       ; '/' -> 63  (Ok)
(assert (bvult (DECODE (_ bv65 8)) (_ bv64 8)))   ; Ok value is a valid sextet (< 64)
(check-sat)
